(set-logic QF_NRA)

(declare-fun pi () Real)
(assert (>= pi 3.141592653589793238461))
(assert (<= pi 3.141592653589793238463))

(declare-fun eps () Real)
(assert (= eps 1.00))

(declare-fun k () Real)
(assert (= k 1))


(declare-fun d1 () Real)
(assert (>= d1 0))
(assert (<= d1 1))

(declare-fun d2 () Real)
(assert (>= d2 0))
(assert (<= d2 1))

(declare-fun d3 () Real)
(assert (>= d3 0))
(assert (<= d3 1))

(declare-fun d4 () Real)
(assert (>= d4 0))
(assert (<= d4 1))

(declare-fun d5 () Real)
(assert (>= d5 0))
(assert (<= d5 1))

(declare-fun d6 () Real)
(assert (>= d6 0))
(assert (<= d6 1))

(declare-fun d7 () Real)
(assert (>= d7 0))
(assert (<= d7 1))

(declare-fun d8 () Real)
(assert (>= d8 0))
(assert (<= d8 1))

(declare-fun d9 () Real)
(assert (>= d9 0))
(assert (<= d9 1))

(declare-fun d10 () Real)
(assert (>= d10 0))
(assert (<= d10 1))

(declare-fun d11 () Real)
(assert (>= d11 0))
(assert (<= d11 1))

(declare-fun d12 () Real)
(assert (>= d12 0))
(assert (<= d12 1))

(declare-fun d13 () Real)
(assert (>= d13 0))
(assert (<= d13 1))

(declare-fun d14 () Real)
(assert (>= d14 0))
(assert (<= d14 1))

(declare-fun d15 () Real)
(assert (>= d15 0))
(assert (<= d15 1))

(declare-fun d16 () Real)
(assert (>= d16 0))
(assert (<= d16 1))

(declare-fun d17 () Real)
(assert (>= d17 0))
(assert (<= d17 1))

(declare-fun d18 () Real)
(assert (>= d18 0))
(assert (<= d18 1))

(declare-fun d19 () Real)
(assert (>= d19 0))
(assert (<= d19 1))

(declare-fun d20 () Real)
(assert (>= d20 0))
(assert (<= d20 1))

(declare-fun d21 () Real)
(assert (>= d21 0))
(assert (<= d21 1))

(declare-fun d22 () Real)
(assert (>= d22 0))
(assert (<= d22 1))

(declare-fun d23 () Real)
(assert (>= d23 0))
(assert (<= d23 1))

(declare-fun d24 () Real)
(assert (>= d24 0))
(assert (<= d24 1))

(declare-fun d25 () Real)
(assert (>= d25 0))
(assert (<= d25 1))

(declare-fun d26 () Real)
(assert (>= d26 0))
(assert (<= d26 1))

(declare-fun d27 () Real)
(assert (>= d27 0))
(assert (<= d27 1))

(declare-fun d28 () Real)
(assert (>= d28 0))
(assert (<= d28 1))

(declare-fun d29 () Real)
(assert (>= d29 0))
(assert (<= d29 1))

(declare-fun d30 () Real)
(assert (>= d30 0))
(assert (<= d30 1))

(declare-fun d31 () Real)
(assert (>= d31 0))
(assert (<= d31 1))

(declare-fun d32 () Real)
(assert (>= d32 0))
(assert (<= d32 1))

(declare-fun d33 () Real)
(assert (>= d33 0))
(assert (<= d33 1))

(declare-fun d34 () Real)
(assert (>= d34 0))
(assert (<= d34 1))

(declare-fun d35 () Real)
(assert (>= d35 0))
(assert (<= d35 1))

(declare-fun d36 () Real)
(assert (>= d36 0))
(assert (<= d36 1))

(declare-fun d37 () Real)
(assert (>= d37 0))
(assert (<= d37 1))

(declare-fun d38 () Real)
(assert (>= d38 0))
(assert (<= d38 1))

(declare-fun d39 () Real)
(assert (>= d39 0))
(assert (<= d39 1))

(declare-fun d40 () Real)
(assert (>= d40 0))
(assert (<= d40 1))

(declare-fun d41 () Real)
(assert (>= d41 0))
(assert (<= d41 1))

(declare-fun d42 () Real)
(assert (>= d42 0))
(assert (<= d42 1))

(declare-fun d43 () Real)
(assert (>= d43 0))
(assert (<= d43 1))

(declare-fun d44 () Real)
(assert (>= d44 0))
(assert (<= d44 1))

(declare-fun d45 () Real)
(assert (>= d45 0))
(assert (<= d45 1))

(declare-fun d46 () Real)
(assert (>= d46 0))
(assert (<= d46 1))

(declare-fun d47 () Real)
(assert (>= d47 0))
(assert (<= d47 1))

(declare-fun d48 () Real)
(assert (>= d48 0))
(assert (<= d48 1))

(declare-fun d49 () Real)
(assert (>= d49 0))
(assert (<= d49 1))

(declare-fun d50 () Real)
(assert (>= d50 0))
(assert (<= d50 1))

(declare-fun d51 () Real)
(assert (>= d51 0))
(assert (<= d51 1))

(declare-fun d52 () Real)
(assert (>= d52 0))
(assert (<= d52 1))

(declare-fun d53 () Real)
(assert (>= d53 0))
(assert (<= d53 1))

(declare-fun d54 () Real)
(assert (>= d54 0))
(assert (<= d54 1))

(declare-fun d55 () Real)
(assert (>= d55 0))
(assert (<= d55 1))

(declare-fun d56 () Real)
(assert (>= d56 0))
(assert (<= d56 1))

(declare-fun d57 () Real)
(assert (>= d57 0))
(assert (<= d57 1))

(declare-fun d58 () Real)
(assert (>= d58 0))
(assert (<= d58 1))

(declare-fun d59 () Real)
(assert (>= d59 0))
(assert (<= d59 1))

(declare-fun d60 () Real)
(assert (>= d60 0))
(assert (<= d60 1))

(declare-fun d61 () Real)
(assert (>= d61 0))
(assert (<= d61 1))

(declare-fun d62 () Real)
(assert (>= d62 0))
(assert (<= d62 1))

(declare-fun d63 () Real)
(assert (>= d63 0))
(assert (<= d63 1))

(declare-fun d64 () Real)
(assert (>= d64 0))
(assert (<= d64 1))

(declare-fun d65 () Real)
(assert (>= d65 0))
(assert (<= d65 1))

(declare-fun d66 () Real)
(assert (>= d66 0))
(assert (<= d66 1))

(declare-fun d67 () Real)
(assert (>= d67 0))
(assert (<= d67 1))

(declare-fun d68 () Real)
(assert (>= d68 0))
(assert (<= d68 1))

(declare-fun d69 () Real)
(assert (>= d69 0))
(assert (<= d69 1))

(declare-fun d70 () Real)
(assert (>= d70 0))
(assert (<= d70 1))

(declare-fun d71 () Real)
(assert (>= d71 0))
(assert (<= d71 1))


(assert
    (not
        (<=
            (+
                (* 
                    (/
                        1
                        (* 
                            2 
                            pi 
                            (pow (sqrt (/ 4 (* eps eps))) 3) 
                            (sqrt (* 2 pi))
                        )
                    )
                    (+ 
                        (integral (- k) k
                            (lambda (y Real)
                                (exp (- (/ (* (- y 1) (- y 1)) (* eps eps 2 4))))
                            )
                        )
                        
                                (integral (- k) d1
                                    (lambda (x1 Real)
                                        (exp (- (/ (* (- x1 0) (- x1 0) eps eps) (* 2 4))))
                                    )
                                )

                                (integral (- k) d2
                                    (lambda (x2 Real)
                                        (exp (- (/ (* (- x2 0) (- x2 0) eps eps) (* 2 4))))
                                    )
                                )

                                (integral (- k) d3
                                    (lambda (x3 Real)
                                        (exp (- (/ (* (- x3 0) (- x3 0) eps eps) (* 2 4))))
                                    )
                                )

                                (integral (- k) d4
                                    (lambda (x4 Real)
                                        (exp (- (/ (* (- x4 0) (- x4 0) eps eps) (* 2 4))))
                                    )
                                )

                                (integral (- k) d5
                                    (lambda (x5 Real)
                                        (exp (- (/ (* (- x5 0) (- x5 0) eps eps) (* 2 4))))
                                    )
                                )

                                (integral (- k) d6
                                    (lambda (x6 Real)
                                        (exp (- (/ (* (- x6 0) (- x6 0) eps eps) (* 2 4))))
                                    )
                                )

                                (integral (- k) d7
                                    (lambda (x7 Real)
                                        (exp (- (/ (* (- x7 0) (- x7 0) eps eps) (* 2 4))))
                                    )
                                )

                                (integral (- k) d8
                                    (lambda (x8 Real)
                                        (exp (- (/ (* (- x8 0) (- x8 0) eps eps) (* 2 4))))
                                    )
                                )

                                (integral (- k) d9
                                    (lambda (x9 Real)
                                        (exp (- (/ (* (- x9 0) (- x9 0) eps eps) (* 2 4))))
                                    )
                                )

                                (integral (- k) d10
                                    (lambda (x10 Real)
                                        (exp (- (/ (* (- x10 0) (- x10 0) eps eps) (* 2 4))))
                                    )
                                )

                                (integral (- k) d11
                                    (lambda (x11 Real)
                                        (exp (- (/ (* (- x11 0) (- x11 0) eps eps) (* 2 4))))
                                    )
                                )

                                (integral (- k) d12
                                    (lambda (x12 Real)
                                        (exp (- (/ (* (- x12 0) (- x12 0) eps eps) (* 2 4))))
                                    )
                                )

                                (integral (- k) d13
                                    (lambda (x13 Real)
                                        (exp (- (/ (* (- x13 0) (- x13 0) eps eps) (* 2 4))))
                                    )
                                )

                                (integral (- k) d14
                                    (lambda (x14 Real)
                                        (exp (- (/ (* (- x14 0) (- x14 0) eps eps) (* 2 4))))
                                    )
                                )

                                (integral (- k) d15
                                    (lambda (x15 Real)
                                        (exp (- (/ (* (- x15 0) (- x15 0) eps eps) (* 2 4))))
                                    )
                                )

                                (integral (- k) d16
                                    (lambda (x16 Real)
                                        (exp (- (/ (* (- x16 0) (- x16 0) eps eps) (* 2 4))))
                                    )
                                )

                                (integral (- k) d17
                                    (lambda (x17 Real)
                                        (exp (- (/ (* (- x17 0) (- x17 0) eps eps) (* 2 4))))
                                    )
                                )

                                (integral (- k) d18
                                    (lambda (x18 Real)
                                        (exp (- (/ (* (- x18 0) (- x18 0) eps eps) (* 2 4))))
                                    )
                                )

                                (integral (- k) d19
                                    (lambda (x19 Real)
                                        (exp (- (/ (* (- x19 0) (- x19 0) eps eps) (* 2 4))))
                                    )
                                )

                                (integral (- k) d20
                                    (lambda (x20 Real)
                                        (exp (- (/ (* (- x20 0) (- x20 0) eps eps) (* 2 4))))
                                    )
                                )

                                (integral (- k) d21
                                    (lambda (x21 Real)
                                        (exp (- (/ (* (- x21 0) (- x21 0) eps eps) (* 2 4))))
                                    )
                                )

                                (integral (- k) d22
                                    (lambda (x22 Real)
                                        (exp (- (/ (* (- x22 0) (- x22 0) eps eps) (* 2 4))))
                                    )
                                )

                                (integral (- k) d23
                                    (lambda (x23 Real)
                                        (exp (- (/ (* (- x23 0) (- x23 0) eps eps) (* 2 4))))
                                    )
                                )

                                (integral (- k) d24
                                    (lambda (x24 Real)
                                        (exp (- (/ (* (- x24 0) (- x24 0) eps eps) (* 2 4))))
                                    )
                                )

                                (integral (- k) d25
                                    (lambda (x25 Real)
                                        (exp (- (/ (* (- x25 0) (- x25 0) eps eps) (* 2 4))))
                                    )
                                )

                                (integral (- k) d26
                                    (lambda (x26 Real)
                                        (exp (- (/ (* (- x26 0) (- x26 0) eps eps) (* 2 4))))
                                    )
                                )

                                (integral (- k) d27
                                    (lambda (x27 Real)
                                        (exp (- (/ (* (- x27 0) (- x27 0) eps eps) (* 2 4))))
                                    )
                                )

                                (integral (- k) d28
                                    (lambda (x28 Real)
                                        (exp (- (/ (* (- x28 0) (- x28 0) eps eps) (* 2 4))))
                                    )
                                )

                                (integral (- k) d29
                                    (lambda (x29 Real)
                                        (exp (- (/ (* (- x29 0) (- x29 0) eps eps) (* 2 4))))
                                    )
                                )

                                (integral (- k) d30
                                    (lambda (x30 Real)
                                        (exp (- (/ (* (- x30 0) (- x30 0) eps eps) (* 2 4))))
                                    )
                                )

                                (integral (- k) d31
                                    (lambda (x31 Real)
                                        (exp (- (/ (* (- x31 0) (- x31 0) eps eps) (* 2 4))))
                                    )
                                )

                                (integral (- k) d32
                                    (lambda (x32 Real)
                                        (exp (- (/ (* (- x32 0) (- x32 0) eps eps) (* 2 4))))
                                    )
                                )

                                (integral (- k) d33
                                    (lambda (x33 Real)
                                        (exp (- (/ (* (- x33 0) (- x33 0) eps eps) (* 2 4))))
                                    )
                                )

                                (integral (- k) d34
                                    (lambda (x34 Real)
                                        (exp (- (/ (* (- x34 0) (- x34 0) eps eps) (* 2 4))))
                                    )
                                )

                                (integral (- k) d35
                                    (lambda (x35 Real)
                                        (exp (- (/ (* (- x35 0) (- x35 0) eps eps) (* 2 4))))
                                    )
                                )

                                (integral (- k) d36
                                    (lambda (x36 Real)
                                        (exp (- (/ (* (- x36 0) (- x36 0) eps eps) (* 2 4))))
                                    )
                                )

                                (integral (- k) d37
                                    (lambda (x37 Real)
                                        (exp (- (/ (* (- x37 0) (- x37 0) eps eps) (* 2 4))))
                                    )
                                )

                                (integral (- k) d38
                                    (lambda (x38 Real)
                                        (exp (- (/ (* (- x38 0) (- x38 0) eps eps) (* 2 4))))
                                    )
                                )

                                (integral (- k) d39
                                    (lambda (x39 Real)
                                        (exp (- (/ (* (- x39 0) (- x39 0) eps eps) (* 2 4))))
                                    )
                                )

                                (integral (- k) d40
                                    (lambda (x40 Real)
                                        (exp (- (/ (* (- x40 0) (- x40 0) eps eps) (* 2 4))))
                                    )
                                )

                                (integral (- k) d41
                                    (lambda (x41 Real)
                                        (exp (- (/ (* (- x41 0) (- x41 0) eps eps) (* 2 4))))
                                    )
                                )

                                (integral (- k) d42
                                    (lambda (x42 Real)
                                        (exp (- (/ (* (- x42 0) (- x42 0) eps eps) (* 2 4))))
                                    )
                                )

                                (integral (- k) d43
                                    (lambda (x43 Real)
                                        (exp (- (/ (* (- x43 0) (- x43 0) eps eps) (* 2 4))))
                                    )
                                )

                                (integral (- k) d44
                                    (lambda (x44 Real)
                                        (exp (- (/ (* (- x44 0) (- x44 0) eps eps) (* 2 4))))
                                    )
                                )

                                (integral (- k) d45
                                    (lambda (x45 Real)
                                        (exp (- (/ (* (- x45 0) (- x45 0) eps eps) (* 2 4))))
                                    )
                                )

                                (integral (- k) d46
                                    (lambda (x46 Real)
                                        (exp (- (/ (* (- x46 0) (- x46 0) eps eps) (* 2 4))))
                                    )
                                )

                                (integral (- k) d47
                                    (lambda (x47 Real)
                                        (exp (- (/ (* (- x47 0) (- x47 0) eps eps) (* 2 4))))
                                    )
                                )

                                (integral (- k) d48
                                    (lambda (x48 Real)
                                        (exp (- (/ (* (- x48 0) (- x48 0) eps eps) (* 2 4))))
                                    )
                                )

                                (integral (- k) d49
                                    (lambda (x49 Real)
                                        (exp (- (/ (* (- x49 0) (- x49 0) eps eps) (* 2 4))))
                                    )
                                )

                                (integral (- k) d50
                                    (lambda (x50 Real)
                                        (exp (- (/ (* (- x50 0) (- x50 0) eps eps) (* 2 4))))
                                    )
                                )

                                (integral (- k) d51
                                    (lambda (x51 Real)
                                        (exp (- (/ (* (- x51 0) (- x51 0) eps eps) (* 2 4))))
                                    )
                                )

                                (integral (- k) d52
                                    (lambda (x52 Real)
                                        (exp (- (/ (* (- x52 0) (- x52 0) eps eps) (* 2 4))))
                                    )
                                )

                                (integral (- k) d53
                                    (lambda (x53 Real)
                                        (exp (- (/ (* (- x53 0) (- x53 0) eps eps) (* 2 4))))
                                    )
                                )

                                (integral (- k) d54
                                    (lambda (x54 Real)
                                        (exp (- (/ (* (- x54 0) (- x54 0) eps eps) (* 2 4))))
                                    )
                                )

                                (integral (- k) d55
                                    (lambda (x55 Real)
                                        (exp (- (/ (* (- x55 0) (- x55 0) eps eps) (* 2 4))))
                                    )
                                )

                                (integral (- k) d56
                                    (lambda (x56 Real)
                                        (exp (- (/ (* (- x56 0) (- x56 0) eps eps) (* 2 4))))
                                    )
                                )

                                (integral (- k) d57
                                    (lambda (x57 Real)
                                        (exp (- (/ (* (- x57 0) (- x57 0) eps eps) (* 2 4))))
                                    )
                                )

                                (integral (- k) d58
                                    (lambda (x58 Real)
                                        (exp (- (/ (* (- x58 0) (- x58 0) eps eps) (* 2 4))))
                                    )
                                )

                                (integral (- k) d59
                                    (lambda (x59 Real)
                                        (exp (- (/ (* (- x59 0) (- x59 0) eps eps) (* 2 4))))
                                    )
                                )

                                (integral (- k) d60
                                    (lambda (x60 Real)
                                        (exp (- (/ (* (- x60 0) (- x60 0) eps eps) (* 2 4))))
                                    )
                                )

                                (integral (- k) d61
                                    (lambda (x61 Real)
                                        (exp (- (/ (* (- x61 0) (- x61 0) eps eps) (* 2 4))))
                                    )
                                )

                                (integral (- k) d62
                                    (lambda (x62 Real)
                                        (exp (- (/ (* (- x62 0) (- x62 0) eps eps) (* 2 4))))
                                    )
                                )

                                (integral (- k) d63
                                    (lambda (x63 Real)
                                        (exp (- (/ (* (- x63 0) (- x63 0) eps eps) (* 2 4))))
                                    )
                                )

                                (integral (- k) d64
                                    (lambda (x64 Real)
                                        (exp (- (/ (* (- x64 0) (- x64 0) eps eps) (* 2 4))))
                                    )
                                )

                                (integral (- k) d65
                                    (lambda (x65 Real)
                                        (exp (- (/ (* (- x65 0) (- x65 0) eps eps) (* 2 4))))
                                    )
                                )

                                (integral (- k) d66
                                    (lambda (x66 Real)
                                        (exp (- (/ (* (- x66 0) (- x66 0) eps eps) (* 2 4))))
                                    )
                                )

                                (integral (- k) d67
                                    (lambda (x67 Real)
                                        (exp (- (/ (* (- x67 0) (- x67 0) eps eps) (* 2 4))))
                                    )
                                )

                                (integral (- k) d68
                                    (lambda (x68 Real)
                                        (exp (- (/ (* (- x68 0) (- x68 0) eps eps) (* 2 4))))
                                    )
                                )

                                (integral (- k) d69
                                    (lambda (x69 Real)
                                        (exp (- (/ (* (- x69 0) (- x69 0) eps eps) (* 2 4))))
                                    )
                                )

                                (integral (- k) d70
                                    (lambda (x70 Real)
                                        (exp (- (/ (* (- x70 0) (- x70 0) eps eps) (* 2 4))))
                                    )
                                )

                                (integral (- k) d71
                                    (lambda (x71 Real)
                                        (exp (- (/ (* (- x71 0) (- x71 0) eps eps) (* 2 4))))
                                    )
                                )

                    )
                )
            )
            (/ 1 4)
        )
    )
)

(check-sat) ; should be unsat
(exit)